80 80
70 40 1
21 4 1
62 52 1
15 73 1
35 89 1
11 56 1
65 62 1
54 30 1
65 16 1
22 7 1
79 27 1
26 31 1
84 8 1
10 80 1
92 3 1
53 65 1
47 89 1
64 30 1
27 78 1
90 53 1
42 13 1
7 46 1
38 74 1
26 52 1
92 70 1
93 50 1
16 47 1
84 50 1
53 82 1
11 98 1
81 86 1
19 70 1
12 4 1
85 78 1
91 13 1
20 66 1
94 25 1
68 13 1
33 84 1
9 29 1
52 68 1
51 58 1
29 88 1
41 79 1
76 88 1
56 3 1
36 46 1
6 74 1
88 74 1
37 69 1
43 15 1
27 1 1
44 48 1
85 12 1
71 83 1
57 82 1
33 65 1
21 22 1
75 73 1
87 74 1
76 16 1
100 19 1
46 39 1
38 66 1
30 21 1
12 60 1
5 72 1
66 79 1
83 36 1
79 33 1
8 92 1
60 69 1
58 51 1
56 62 1
43 57 1
42 24 1
9 87 1
32 1 1
33 54 1
68 68 1
100 100 
100 100 
100 100 
100 100 
100 100 
100 100 
100 100 
100 100 
100 100 
100 100 
100 100 
100 100 
100 100 
100 100 
100 100 
100 100 
100 100 
100 100 
100 100 
100 100 
100 100 
100 100 
100 100 
100 100 
100 100 
100 100 
100 100 
100 100 
100 100 
100 100 
100 100 
100 100 
100 100 
100 100 
100 100 
100 100 
100 100 
100 100 
100 100 
100 100 
100 100 
100 100 
100 100 
100 100 
100 100 
100 100 
100 100 
100 100 
100 100 
100 100 
100 100 
100 100 
100 100 
100 100 
100 100 
100 100 
100 100 
100 100 
100 100 
100 100 
100 100 
100 100 
100 100 
100 100 
100 100 
100 100 
100 100 
100 100 
100 100 
100 100 
100 100 
100 100 
100 100 
100 100 
100 100 
100 100 
100 100 
100 100 
100 100 
100 100 
